(set-info :smt-lib-version 2.6)
(set-logic QF_BV)
(set-info :source |
 Patrice Godefroid, SAGE (systematic dynamic test generation)
 For more information: http://research.microsoft.com/en-us/um/people/pg/public_psfiles/ndss2008.pdf
|)
(set-info :category "industrial")
(set-info :status unsat)
(declare-fun T4_31323 () (_ BitVec 32))
(declare-fun T1_31323 () (_ BitVec 8))
(declare-fun T1_31324 () (_ BitVec 8))
(declare-fun T1_31325 () (_ BitVec 8))
(declare-fun T1_31326 () (_ BitVec 8))
(assert (and true (= T4_31323 (bvor (bvshl (bvor (bvshl (bvor (bvshl ((_ zero_extend 24) T1_31326) (_ bv8 32)) ((_ zero_extend 24) T1_31325)) (_ bv8 32)) ((_ zero_extend 24) T1_31324)) (_ bv8 32)) ((_ zero_extend 24) T1_31323))) (bvult T4_31323 (_ bv0 32)) (bvule T4_31323 (_ bv11 32))))
(check-sat)
(exit)
